/*
DATA SET 3: 
3 esami, 100 studenti, 1 aula, 10 giorni. 
*/
ESAMI = {AI,IC,CN};
S = 100;
A = 1;
G = 10;

durata = [1,3,4];
capienza = [102];

prenotazioni = [|1,0,0
                |1,1,1
                |1,0,1
                |1,0,1
                |1,0,1
                |1,1,1
                |1,0,1
                |1,1,1
                |1,1,1
                |1,1,1
                |1,1,1
                |1,0,1
                |1,0,1
                |1,0,1
                |1,1,1
                |1,0,1
                |1,1,1
                |1,1,1
                |1,0,1
                |1,0,1
                |1,0,1
                |1,1,1
                |1,0,1
                |1,1,1
                |1,1,1
                |1,1,1
                |1,0,1
                |1,0,1
                |1,0,1
                |1,1,1
                |1,0,1
                |1,1,1
                |1,1,1
                |1,0,1
                |1,0,1
                |1,0,1
                |1,1,1
                |1,0,1
                |1,1,1
                |1,1,1
                |1,1,1
                |1,0,1
                |1,0,1
                |1,0,1
                |1,1,1
                |1,0,1
                |1,1,1
                |1,1,1
                |1,1,1
                |1,0,1
                |1,0,1
                |1,0,1
                |1,1,1
                |1,0,1
                |1,0,1
                |1,0,1
                |1,1,1
                |1,0,1
                |1,1,1
                |1,1,1
                |1,1,1
                |1,0,1
                |1,0,1
                |1,0,1
                |1,1,1
                |1,0,1
                |1,1,1
                |1,1,1
                |1,1,1
                |1,0,1
                |1,0,1
                |1,1,1
                |1,0,1
                |1,1,1
                |1,1,1
                |1,1,1
                |1,0,1
                |1,0,1
                |1,0,1
                |1,1,1
                |1,0,1
                |1,1,1
                |1,1,1
                |1,1,1
                |1,1,1
                |1,0,1
                |1,1,1
                |1,1,1
                |1,1,1
                |1,1,1
                |1,0,1
                |1,1,1
                |1,1,1
                |1,1,1
                |1,0,1
                |1,0,1
                |1,0,1
                |1,0,1
                |1,0,1
                |1,1,0|];